c smth
s vc 200 140
200
198
197
195
194
191
190
189
187
186
184
183
182
181
179
178
176
174
172
171
169
168
167
166
163
162
161
160
158
157
156
154
152
151
150
149
147
146
144
143
142
140
139
138
133
132
131
130
128
127
126
124
123
122
121
118
117
116
115
114
112
111
110
109
108
107
106
104
103
102
100
99
96
95
93
92
91
90
87
86
84
83
82
79
78
77
76
75
74
73
72
71
70
69
67
65
62
61
60
58
56
54
51
50
49
48
46
44
43
40
39
38
36
34
32
31
30
29
28
26
25
24
22
19
18
17
16
15
14
13
12
11
10
8
7
6
5
4
3
1